benchmark/results/graph__10-1000-0.10-04_19/graph__10-1000-0.10-04_19_Quinton_Monolithic.lp
\ This file has been generated by DOcplex
\ ENCODING=ISO-8859-1
\Problem name: Quinton Monolithic

Maximize
 obj: tau
Subject To
 c1: tau - 0.001064962726 m_a0_proc_0 - 0.001109877913 m_a0_proc_1
     - 0.000820344545 m_a0_proc_2 - 0.000977517107 m_a0_proc_3 <= 0
 c2: y_a0_proc_0 + y_a0_proc_1 + y_a0_proc_2 + y_a0_proc_3 - tau = 0
 c3: m_a0_proc_0 + m_a0_proc_1 + m_a0_proc_2 + m_a0_proc_3 = 1
 c4: y_a0_proc_0 - m_a0_proc_0 <= 0
 c5: y_a0_proc_0 >= 0
 c6: y_a0_proc_1 - m_a0_proc_1 <= 0
 c7: y_a0_proc_1 >= 0
 c8: y_a0_proc_2 - m_a0_proc_2 <= 0
 c9: y_a0_proc_2 >= 0
 c10: y_a0_proc_3 - m_a0_proc_3 <= 0
 c11: y_a0_proc_3 >= 0
 c12: tau - 0.001602564103 m_a1_proc_0 - 0.001246882793 m_a1_proc_2
      - 0.001282051282 m_a1_proc_3 <= 0
 c13: y_a1_proc_0 + y_a1_proc_2 + y_a1_proc_3 - tau = 0
 c14: m_a1_proc_0 + m_a1_proc_2 + m_a1_proc_3 = 1
 c15: y_a1_proc_0 - m_a1_proc_0 <= 0
 c16: y_a1_proc_0 >= 0
 c17: y_a1_proc_2 - m_a1_proc_2 <= 0
 c18: y_a1_proc_2 >= 0
 c19: y_a1_proc_3 - m_a1_proc_3 <= 0
 c20: y_a1_proc_3 >= 0
 c21: tau - 0.001116071429 m_a2_proc_0 - 0.000899280576 m_a2_proc_2
      - 0.001059322034 m_a2_proc_3 <= 0
 c22: y_a2_proc_0 + y_a2_proc_2 + y_a2_proc_3 - tau = 0
 c23: m_a2_proc_0 + m_a2_proc_2 + m_a2_proc_3 = 1
 c24: y_a2_proc_0 - m_a2_proc_0 <= 0
 c25: y_a2_proc_0 >= 0
 c26: y_a2_proc_2 - m_a2_proc_2 <= 0
 c27: y_a2_proc_2 >= 0
 c28: y_a2_proc_3 - m_a2_proc_3 <= 0
 c29: y_a2_proc_3 >= 0
 c30: tau - 0.000779423227 m_a3_proc_0 - 0.001116071429 m_a3_proc_1
      - 0.001209189843 m_a3_proc_3 <= 0
 c31: y_a3_proc_0 + y_a3_proc_1 + y_a3_proc_3 - tau = 0
 c32: m_a3_proc_0 + m_a3_proc_1 + m_a3_proc_3 = 1
 c33: y_a3_proc_0 - m_a3_proc_0 <= 0
 c34: y_a3_proc_0 >= 0
 c35: y_a3_proc_1 - m_a3_proc_1 <= 0
 c36: y_a3_proc_1 >= 0
 c37: y_a3_proc_3 - m_a3_proc_3 <= 0
 c38: y_a3_proc_3 >= 0
 c39: tau - 0.000946073794 m_a4_proc_0 - 0.000796178344 m_a4_proc_1
      - 0.001031991744 m_a4_proc_2 <= 0
 c40: y_a4_proc_0 + y_a4_proc_1 + y_a4_proc_2 - tau = 0
 c41: m_a4_proc_0 + m_a4_proc_1 + m_a4_proc_2 = 1
 c42: y_a4_proc_0 - m_a4_proc_0 <= 0
 c43: y_a4_proc_0 >= 0
 c44: y_a4_proc_1 - m_a4_proc_1 <= 0
 c45: y_a4_proc_1 >= 0
 c46: y_a4_proc_2 - m_a4_proc_2 <= 0
 c47: y_a4_proc_2 >= 0
 c48: tau - 0.001858736059 m_a5_proc_1 - 0.001038421599 m_a5_proc_2 <= 0
 c49: y_a5_proc_1 + y_a5_proc_2 - tau = 0
 c50: m_a5_proc_1 + m_a5_proc_2 = 1
 c51: y_a5_proc_1 - m_a5_proc_1 <= 0
 c52: y_a5_proc_1 >= 0
 c53: y_a5_proc_2 - m_a5_proc_2 <= 0
 c54: y_a5_proc_2 >= 0
 c55: tau - 0.000964320154 m_a6_proc_0 - 0.001057082452 m_a6_proc_1
      - 0.001216545012 m_a6_proc_2 - 0.000814995925 m_a6_proc_3 <= 0
 c56: y_a6_proc_0 + y_a6_proc_1 + y_a6_proc_2 + y_a6_proc_3 - tau = 0
 c57: m_a6_proc_0 + m_a6_proc_1 + m_a6_proc_2 + m_a6_proc_3 = 1
 c58: y_a6_proc_0 - m_a6_proc_0 <= 0
 c59: y_a6_proc_0 >= 0
 c60: y_a6_proc_1 - m_a6_proc_1 <= 0
 c61: y_a6_proc_1 >= 0
 c62: y_a6_proc_2 - m_a6_proc_2 <= 0
 c63: y_a6_proc_2 >= 0
 c64: y_a6_proc_3 - m_a6_proc_3 <= 0
 c65: y_a6_proc_3 >= 0
 c66: tau - 0.000805152979 m_a7_proc_0 - 0.000780031201 m_a7_proc_1
      - 0.001173708920 m_a7_proc_2 - 0.001240694789 m_a7_proc_3 <= 0
 c67: y_a7_proc_0 + y_a7_proc_1 + y_a7_proc_2 + y_a7_proc_3 - tau = 0
 c68: m_a7_proc_0 + m_a7_proc_1 + m_a7_proc_2 + m_a7_proc_3 = 1
 c69: y_a7_proc_0 - m_a7_proc_0 <= 0
 c70: y_a7_proc_0 >= 0
 c71: y_a7_proc_1 - m_a7_proc_1 <= 0
 c72: y_a7_proc_1 >= 0
 c73: y_a7_proc_2 - m_a7_proc_2 <= 0
 c74: y_a7_proc_2 >= 0
 c75: y_a7_proc_3 - m_a7_proc_3 <= 0
 c76: y_a7_proc_3 >= 0
 c77: tau - 0.000869565217 m_a8_proc_0 - 0.001083423619 m_a8_proc_1
      - 0.001251564456 m_a8_proc_2 <= 0
 c78: y_a8_proc_0 + y_a8_proc_1 + y_a8_proc_2 - tau = 0
 c79: m_a8_proc_0 + m_a8_proc_1 + m_a8_proc_2 = 1
 c80: y_a8_proc_0 - m_a8_proc_0 <= 0
 c81: y_a8_proc_0 >= 0
 c82: y_a8_proc_1 - m_a8_proc_1 <= 0
 c83: y_a8_proc_1 >= 0
 c84: y_a8_proc_2 - m_a8_proc_2 <= 0
 c85: y_a8_proc_2 >= 0
 c86: tau - 0.000772200772 m_a9_proc_0 - 0.001062699256 m_a9_proc_1
      - 0.000834028357 m_a9_proc_2 - 0.000903342367 m_a9_proc_3 <= 0
 c87: y_a9_proc_0 + y_a9_proc_1 + y_a9_proc_2 + y_a9_proc_3 - tau = 0
 c88: m_a9_proc_0 + m_a9_proc_1 + m_a9_proc_2 + m_a9_proc_3 = 1
 c89: y_a9_proc_0 - m_a9_proc_0 <= 0
 c90: y_a9_proc_0 >= 0
 c91: y_a9_proc_1 - m_a9_proc_1 <= 0
 c92: y_a9_proc_1 >= 0
 c93: y_a9_proc_2 - m_a9_proc_2 <= 0
 c94: y_a9_proc_2 >= 0
 c95: y_a9_proc_3 - m_a9_proc_3 <= 0
 c96: y_a9_proc_3 >= 0
 c97: u_a0 - u_a1 - 624 y_a1_proc_0 - 802 y_a1_proc_2 - 780 y_a1_proc_3 >= 0
 c98: u_a1 - u_a2 - 896 y_a2_proc_0 - 1112 y_a2_proc_2 - 944 y_a2_proc_3 >= 0
 c99: u_a3 - u_a2 - 896 y_a2_proc_0 - 1112 y_a2_proc_2 - 944 y_a2_proc_3 >= -1
 c100: u_a2 - u_a4 - 1057 y_a4_proc_0 - 1256 y_a4_proc_1 - 969 y_a4_proc_2 >= 
       -1
 c101: u_a2 - u_a5 - 538 y_a5_proc_1 - 963 y_a5_proc_2 >= -1
 c102: u_a6 - u_a3 - 1283 y_a3_proc_0 - 896 y_a3_proc_1 - 827 y_a3_proc_3 >= 0
 c103: u_a7 - u_a6 - 1037 y_a6_proc_0 - 946 y_a6_proc_1 - 822 y_a6_proc_2
       - 1227 y_a6_proc_3 >= -1
 c104: u_a8 - u_a3 - 1283 y_a3_proc_0 - 896 y_a3_proc_1 - 827 y_a3_proc_3 >= -1
 c105: u_a9 - u_a0 - 939 y_a0_proc_0 - 901 y_a0_proc_1 - 1219 y_a0_proc_2
       - 1023 y_a0_proc_3 >= -1
 c106: u_a3 - u_a6 - 1037 y_a6_proc_0 - 946 y_a6_proc_1 - 822 y_a6_proc_2
       - 1227 y_a6_proc_3 >= -1
 c107: u_a6 - u_a2 - 896 y_a2_proc_0 - 1112 y_a2_proc_2 - 944 y_a2_proc_3 >= 0
 c108: u_a8 - u_a9 - 1295 y_a9_proc_0 - 941 y_a9_proc_1 - 1199 y_a9_proc_2
       - 1107 y_a9_proc_3 >= 0
 c109: u_a5 - u_a8 - 1150 y_a8_proc_0 - 923 y_a8_proc_1 - 799 y_a8_proc_2 >= 0
 c110: u_a5 - u_a6 - 1037 y_a6_proc_0 - 946 y_a6_proc_1 - 822 y_a6_proc_2
       - 1227 y_a6_proc_3 >= 0
 c111: u_a8 - u_a5 - 538 y_a5_proc_1 - 963 y_a5_proc_2 >= -1
 c112: u_a9 - u_a4 - 1057 y_a4_proc_0 - 1256 y_a4_proc_1 - 969 y_a4_proc_2 >= 
       -1
 c113: u_a1 - u_a4 - 1057 y_a4_proc_0 - 1256 y_a4_proc_1 - 969 y_a4_proc_2 >= 
       -1
 c114: u_a2 - u_a7 - 1242 y_a7_proc_0 - 1282 y_a7_proc_1 - 852 y_a7_proc_2
       - 806 y_a7_proc_3 >= 0
 c115: u_a3 - u_a5 - 538 y_a5_proc_1 - 963 y_a5_proc_2 >= -1
 c116: u_a4 - u_a1 - 624 y_a1_proc_0 - 802 y_a1_proc_2 - 780 y_a1_proc_3 >= 0
 c117: u_a1 + K_a0_a1 - 1295 m_a0_proc_2 - 1295 m_a1_proc_2 - u_a0
       - 1219 y_a0_proc_2 >= -2590
 c118: u_a1 + K_a0_a1 - 1295 m_a0_proc_3 - 1295 m_a1_proc_3 - u_a0
       - 1023 y_a0_proc_3 >= -2590
 c119: u_a1 + K_a0_a1 - 1295 m_a0_proc_0 - 1295 m_a1_proc_0 - u_a0
       - 939 y_a0_proc_0 >= -2590
 c120: K_a0_a1 + K_a1_a0 = 1
 c121: u_a0 + K_a1_a0 - 1295 m_a0_proc_2 - 1295 m_a1_proc_2 - u_a1
       - 802 y_a1_proc_2 >= -2590
 c122: u_a0 + K_a1_a0 - 1295 m_a0_proc_3 - 1295 m_a1_proc_3 - u_a1
       - 780 y_a1_proc_3 >= -2590
 c123: u_a0 + K_a1_a0 - 1295 m_a0_proc_0 - 1295 m_a1_proc_0 - u_a1
       - 624 y_a1_proc_0 >= -2590
 c124: K_a0_a1 + K_a1_a0 = 1
 c125: u_a2 + K_a0_a2 - 1295 m_a0_proc_2 - 1295 m_a2_proc_2 - u_a0
       - 1219 y_a0_proc_2 >= -2590
 c126: u_a2 + K_a0_a2 - 1295 m_a0_proc_3 - 1295 m_a2_proc_3 - u_a0
       - 1023 y_a0_proc_3 >= -2590
 c127: u_a2 + K_a0_a2 - 1295 m_a0_proc_0 - 1295 m_a2_proc_0 - u_a0
       - 939 y_a0_proc_0 >= -2590
 c128: K_a0_a2 + K_a2_a0 = 1
 c129: u_a0 + K_a2_a0 - 1295 m_a0_proc_2 - 1295 m_a2_proc_2 - u_a2
       - 1112 y_a2_proc_2 >= -2590
 c130: u_a0 + K_a2_a0 - 1295 m_a0_proc_3 - 1295 m_a2_proc_3 - u_a2
       - 944 y_a2_proc_3 >= -2590
 c131: u_a0 + K_a2_a0 - 1295 m_a0_proc_0 - 1295 m_a2_proc_0 - u_a2
       - 896 y_a2_proc_0 >= -2590
 c132: K_a0_a2 + K_a2_a0 = 1
 c133: u_a3 + K_a0_a3 - 1295 m_a0_proc_3 - 1295 m_a3_proc_3 - u_a0
       - 1023 y_a0_proc_3 >= -2590
 c134: u_a3 + K_a0_a3 - 1295 m_a0_proc_0 - 1295 m_a3_proc_0 - u_a0
       - 939 y_a0_proc_0 >= -2590
 c135: u_a3 + K_a0_a3 - 1295 m_a0_proc_1 - 1295 m_a3_proc_1 - u_a0
       - 901 y_a0_proc_1 >= -2590
 c136: K_a0_a3 + K_a3_a0 = 1
 c137: u_a0 + K_a3_a0 - 1295 m_a0_proc_3 - 1295 m_a3_proc_3 - u_a3
       - 827 y_a3_proc_3 >= -2590
 c138: u_a0 + K_a3_a0 - 1295 m_a0_proc_0 - 1295 m_a3_proc_0 - u_a3
       - 1283 y_a3_proc_0 >= -2590
 c139: u_a0 + K_a3_a0 - 1295 m_a0_proc_1 - 1295 m_a3_proc_1 - u_a3
       - 896 y_a3_proc_1 >= -2590
 c140: K_a0_a3 + K_a3_a0 = 1
 c141: u_a4 + K_a0_a4 - 1295 m_a0_proc_2 - 1295 m_a4_proc_2 - u_a0
       - 1219 y_a0_proc_2 >= -2590
 c142: u_a4 + K_a0_a4 - 1295 m_a0_proc_0 - 1295 m_a4_proc_0 - u_a0
       - 939 y_a0_proc_0 >= -2590
 c143: u_a4 + K_a0_a4 - 1295 m_a0_proc_1 - 1295 m_a4_proc_1 - u_a0
       - 901 y_a0_proc_1 >= -2590
 c144: K_a0_a4 + K_a4_a0 = 1
 c145: u_a0 + K_a4_a0 - 1295 m_a0_proc_2 - 1295 m_a4_proc_2 - u_a4
       - 969 y_a4_proc_2 >= -2590
 c146: u_a0 + K_a4_a0 - 1295 m_a0_proc_0 - 1295 m_a4_proc_0 - u_a4
       - 1057 y_a4_proc_0 >= -2590
 c147: u_a0 + K_a4_a0 - 1295 m_a0_proc_1 - 1295 m_a4_proc_1 - u_a4
       - 1256 y_a4_proc_1 >= -2590
 c148: K_a0_a4 + K_a4_a0 = 1
 c149: u_a5 + K_a0_a5 - 1295 m_a0_proc_2 - 1295 m_a5_proc_2 - u_a0
       - 1219 y_a0_proc_2 >= -2590
 c150: u_a5 + K_a0_a5 - 1295 m_a0_proc_1 - 1295 m_a5_proc_1 - u_a0
       - 901 y_a0_proc_1 >= -2590
 c151: K_a0_a5 + K_a5_a0 = 1
 c152: u_a0 + K_a5_a0 - 1295 m_a0_proc_2 - 1295 m_a5_proc_2 - u_a5
       - 963 y_a5_proc_2 >= -2590
 c153: u_a0 + K_a5_a0 - 1295 m_a0_proc_1 - 1295 m_a5_proc_1 - u_a5
       - 538 y_a5_proc_1 >= -2590
 c154: K_a0_a5 + K_a5_a0 = 1
 c155: u_a6 + K_a0_a6 - 1295 m_a0_proc_2 - 1295 m_a6_proc_2 - u_a0
       - 1219 y_a0_proc_2 >= -2590
 c156: u_a6 + K_a0_a6 - 1295 m_a0_proc_3 - 1295 m_a6_proc_3 - u_a0
       - 1023 y_a0_proc_3 >= -2590
 c157: u_a6 + K_a0_a6 - 1295 m_a0_proc_0 - 1295 m_a6_proc_0 - u_a0
       - 939 y_a0_proc_0 >= -2590
 c158: u_a6 + K_a0_a6 - 1295 m_a0_proc_1 - 1295 m_a6_proc_1 - u_a0
       - 901 y_a0_proc_1 >= -2590
 c159: K_a0_a6 + K_a6_a0 = 1
 c160: u_a0 + K_a6_a0 - 1295 m_a0_proc_2 - 1295 m_a6_proc_2 - u_a6
       - 822 y_a6_proc_2 >= -2590
 c161: u_a0 + K_a6_a0 - 1295 m_a0_proc_3 - 1295 m_a6_proc_3 - u_a6
       - 1227 y_a6_proc_3 >= -2590
 c162: u_a0 + K_a6_a0 - 1295 m_a0_proc_0 - 1295 m_a6_proc_0 - u_a6
       - 1037 y_a6_proc_0 >= -2590
 c163: u_a0 + K_a6_a0 - 1295 m_a0_proc_1 - 1295 m_a6_proc_1 - u_a6
       - 946 y_a6_proc_1 >= -2590
 c164: K_a0_a6 + K_a6_a0 = 1
 c165: u_a7 + K_a0_a7 - 1295 m_a0_proc_2 - 1295 m_a7_proc_2 - u_a0
       - 1219 y_a0_proc_2 >= -2590
 c166: u_a7 + K_a0_a7 - 1295 m_a0_proc_3 - 1295 m_a7_proc_3 - u_a0
       - 1023 y_a0_proc_3 >= -2590
 c167: u_a7 + K_a0_a7 - 1295 m_a0_proc_0 - 1295 m_a7_proc_0 - u_a0
       - 939 y_a0_proc_0 >= -2590
 c168: u_a7 + K_a0_a7 - 1295 m_a0_proc_1 - 1295 m_a7_proc_1 - u_a0
       - 901 y_a0_proc_1 >= -2590
 c169: K_a0_a7 + K_a7_a0 = 1
 c170: u_a0 + K_a7_a0 - 1295 m_a0_proc_2 - 1295 m_a7_proc_2 - u_a7
       - 852 y_a7_proc_2 >= -2590
 c171: u_a0 + K_a7_a0 - 1295 m_a0_proc_3 - 1295 m_a7_proc_3 - u_a7
       - 806 y_a7_proc_3 >= -2590
 c172: u_a0 + K_a7_a0 - 1295 m_a0_proc_0 - 1295 m_a7_proc_0 - u_a7
       - 1242 y_a7_proc_0 >= -2590
 c173: u_a0 + K_a7_a0 - 1295 m_a0_proc_1 - 1295 m_a7_proc_1 - u_a7
       - 1282 y_a7_proc_1 >= -2590
 c174: K_a0_a7 + K_a7_a0 = 1
 c175: u_a8 + K_a0_a8 - 1295 m_a0_proc_2 - 1295 m_a8_proc_2 - u_a0
       - 1219 y_a0_proc_2 >= -2590
 c176: u_a8 + K_a0_a8 - 1295 m_a0_proc_0 - 1295 m_a8_proc_0 - u_a0
       - 939 y_a0_proc_0 >= -2590
 c177: u_a8 + K_a0_a8 - 1295 m_a0_proc_1 - 1295 m_a8_proc_1 - u_a0
       - 901 y_a0_proc_1 >= -2590
 c178: K_a0_a8 + K_a8_a0 = 1
 c179: u_a0 + K_a8_a0 - 1295 m_a0_proc_2 - 1295 m_a8_proc_2 - u_a8
       - 799 y_a8_proc_2 >= -2590
 c180: u_a0 + K_a8_a0 - 1295 m_a0_proc_0 - 1295 m_a8_proc_0 - u_a8
       - 1150 y_a8_proc_0 >= -2590
 c181: u_a0 + K_a8_a0 - 1295 m_a0_proc_1 - 1295 m_a8_proc_1 - u_a8
       - 923 y_a8_proc_1 >= -2590
 c182: K_a0_a8 + K_a8_a0 = 1
 c183: u_a9 + K_a0_a9 - 1295 m_a0_proc_2 - 1295 m_a9_proc_2 - u_a0
       - 1219 y_a0_proc_2 >= -2590
 c184: u_a9 + K_a0_a9 - 1295 m_a0_proc_3 - 1295 m_a9_proc_3 - u_a0
       - 1023 y_a0_proc_3 >= -2590
 c185: u_a9 + K_a0_a9 - 1295 m_a0_proc_0 - 1295 m_a9_proc_0 - u_a0
       - 939 y_a0_proc_0 >= -2590
 c186: u_a9 + K_a0_a9 - 1295 m_a0_proc_1 - 1295 m_a9_proc_1 - u_a0
       - 901 y_a0_proc_1 >= -2590
 c187: K_a0_a9 + K_a9_a0 = 1
 c188: u_a0 + K_a9_a0 - 1295 m_a0_proc_2 - 1295 m_a9_proc_2 - u_a9
       - 1199 y_a9_proc_2 >= -2590
 c189: u_a0 + K_a9_a0 - 1295 m_a0_proc_3 - 1295 m_a9_proc_3 - u_a9
       - 1107 y_a9_proc_3 >= -2590
 c190: u_a0 + K_a9_a0 - 1295 m_a0_proc_0 - 1295 m_a9_proc_0 - u_a9
       - 1295 y_a9_proc_0 >= -2590
 c191: u_a0 + K_a9_a0 - 1295 m_a0_proc_1 - 1295 m_a9_proc_1 - u_a9
       - 941 y_a9_proc_1 >= -2590
 c192: K_a0_a9 + K_a9_a0 = 1
 c193: u_a2 + K_a1_a2 - 1295 m_a1_proc_2 - 1295 m_a2_proc_2 - u_a1
       - 802 y_a1_proc_2 >= -2590
 c194: u_a2 + K_a1_a2 - 1295 m_a1_proc_3 - 1295 m_a2_proc_3 - u_a1
       - 780 y_a1_proc_3 >= -2590
 c195: u_a2 + K_a1_a2 - 1295 m_a1_proc_0 - 1295 m_a2_proc_0 - u_a1
       - 624 y_a1_proc_0 >= -2590
 c196: K_a1_a2 + K_a2_a1 = 1
 c197: u_a1 + K_a2_a1 - 1295 m_a1_proc_2 - 1295 m_a2_proc_2 - u_a2
       - 1112 y_a2_proc_2 >= -2590
 c198: u_a1 + K_a2_a1 - 1295 m_a1_proc_3 - 1295 m_a2_proc_3 - u_a2
       - 944 y_a2_proc_3 >= -2590
 c199: u_a1 + K_a2_a1 - 1295 m_a1_proc_0 - 1295 m_a2_proc_0 - u_a2
       - 896 y_a2_proc_0 >= -2590
 c200: K_a1_a2 + K_a2_a1 = 1
 c201: u_a3 + K_a1_a3 - 1295 m_a1_proc_3 - 1295 m_a3_proc_3 - u_a1
       - 780 y_a1_proc_3 >= -2590
 c202: u_a3 + K_a1_a3 - 1295 m_a1_proc_0 - 1295 m_a3_proc_0 - u_a1
       - 624 y_a1_proc_0 >= -2590
 c203: K_a1_a3 + K_a3_a1 = 1
 c204: u_a1 + K_a3_a1 - 1295 m_a1_proc_3 - 1295 m_a3_proc_3 - u_a3
       - 827 y_a3_proc_3 >= -2590
 c205: u_a1 + K_a3_a1 - 1295 m_a1_proc_0 - 1295 m_a3_proc_0 - u_a3
       - 1283 y_a3_proc_0 >= -2590
 c206: K_a1_a3 + K_a3_a1 = 1
 c207: u_a4 + K_a1_a4 - 1295 m_a1_proc_2 - 1295 m_a4_proc_2 - u_a1
       - 802 y_a1_proc_2 >= -2590
 c208: u_a4 + K_a1_a4 - 1295 m_a1_proc_0 - 1295 m_a4_proc_0 - u_a1
       - 624 y_a1_proc_0 >= -2590
 c209: K_a1_a4 + K_a4_a1 = 1
 c210: u_a1 + K_a4_a1 - 1295 m_a1_proc_2 - 1295 m_a4_proc_2 - u_a4
       - 969 y_a4_proc_2 >= -2590
 c211: u_a1 + K_a4_a1 - 1295 m_a1_proc_0 - 1295 m_a4_proc_0 - u_a4
       - 1057 y_a4_proc_0 >= -2590
 c212: K_a1_a4 + K_a4_a1 = 1
 c213: u_a5 + K_a1_a5 - 1295 m_a1_proc_2 - 1295 m_a5_proc_2 - u_a1
       - 802 y_a1_proc_2 >= -2590
 c214: K_a1_a5 + K_a5_a1 = 1
 c215: u_a1 + K_a5_a1 - 1295 m_a1_proc_2 - 1295 m_a5_proc_2 - u_a5
       - 963 y_a5_proc_2 >= -2590
 c216: K_a1_a5 + K_a5_a1 = 1
 c217: u_a6 + K_a1_a6 - 1295 m_a1_proc_2 - 1295 m_a6_proc_2 - u_a1
       - 802 y_a1_proc_2 >= -2590
 c218: u_a6 + K_a1_a6 - 1295 m_a1_proc_3 - 1295 m_a6_proc_3 - u_a1
       - 780 y_a1_proc_3 >= -2590
 c219: u_a6 + K_a1_a6 - 1295 m_a1_proc_0 - 1295 m_a6_proc_0 - u_a1
       - 624 y_a1_proc_0 >= -2590
 c220: K_a1_a6 + K_a6_a1 = 1
 c221: u_a1 + K_a6_a1 - 1295 m_a1_proc_2 - 1295 m_a6_proc_2 - u_a6
       - 822 y_a6_proc_2 >= -2590
 c222: u_a1 + K_a6_a1 - 1295 m_a1_proc_3 - 1295 m_a6_proc_3 - u_a6
       - 1227 y_a6_proc_3 >= -2590
 c223: u_a1 + K_a6_a1 - 1295 m_a1_proc_0 - 1295 m_a6_proc_0 - u_a6
       - 1037 y_a6_proc_0 >= -2590
 c224: K_a1_a6 + K_a6_a1 = 1
 c225: u_a7 + K_a1_a7 - 1295 m_a1_proc_2 - 1295 m_a7_proc_2 - u_a1
       - 802 y_a1_proc_2 >= -2590
 c226: u_a7 + K_a1_a7 - 1295 m_a1_proc_3 - 1295 m_a7_proc_3 - u_a1
       - 780 y_a1_proc_3 >= -2590
 c227: u_a7 + K_a1_a7 - 1295 m_a1_proc_0 - 1295 m_a7_proc_0 - u_a1
       - 624 y_a1_proc_0 >= -2590
 c228: K_a1_a7 + K_a7_a1 = 1
 c229: u_a1 + K_a7_a1 - 1295 m_a1_proc_2 - 1295 m_a7_proc_2 - u_a7
       - 852 y_a7_proc_2 >= -2590
 c230: u_a1 + K_a7_a1 - 1295 m_a1_proc_3 - 1295 m_a7_proc_3 - u_a7
       - 806 y_a7_proc_3 >= -2590
 c231: u_a1 + K_a7_a1 - 1295 m_a1_proc_0 - 1295 m_a7_proc_0 - u_a7
       - 1242 y_a7_proc_0 >= -2590
 c232: K_a1_a7 + K_a7_a1 = 1
 c233: u_a8 + K_a1_a8 - 1295 m_a1_proc_2 - 1295 m_a8_proc_2 - u_a1
       - 802 y_a1_proc_2 >= -2590
 c234: u_a8 + K_a1_a8 - 1295 m_a1_proc_0 - 1295 m_a8_proc_0 - u_a1
       - 624 y_a1_proc_0 >= -2590
 c235: K_a1_a8 + K_a8_a1 = 1
 c236: u_a1 + K_a8_a1 - 1295 m_a1_proc_2 - 1295 m_a8_proc_2 - u_a8
       - 799 y_a8_proc_2 >= -2590
 c237: u_a1 + K_a8_a1 - 1295 m_a1_proc_0 - 1295 m_a8_proc_0 - u_a8
       - 1150 y_a8_proc_0 >= -2590
 c238: K_a1_a8 + K_a8_a1 = 1
 c239: u_a9 + K_a1_a9 - 1295 m_a1_proc_2 - 1295 m_a9_proc_2 - u_a1
       - 802 y_a1_proc_2 >= -2590
 c240: u_a9 + K_a1_a9 - 1295 m_a1_proc_3 - 1295 m_a9_proc_3 - u_a1
       - 780 y_a1_proc_3 >= -2590
 c241: u_a9 + K_a1_a9 - 1295 m_a1_proc_0 - 1295 m_a9_proc_0 - u_a1
       - 624 y_a1_proc_0 >= -2590
 c242: K_a1_a9 + K_a9_a1 = 1
 c243: u_a1 + K_a9_a1 - 1295 m_a1_proc_2 - 1295 m_a9_proc_2 - u_a9
       - 1199 y_a9_proc_2 >= -2590
 c244: u_a1 + K_a9_a1 - 1295 m_a1_proc_3 - 1295 m_a9_proc_3 - u_a9
       - 1107 y_a9_proc_3 >= -2590
 c245: u_a1 + K_a9_a1 - 1295 m_a1_proc_0 - 1295 m_a9_proc_0 - u_a9
       - 1295 y_a9_proc_0 >= -2590
 c246: K_a1_a9 + K_a9_a1 = 1
 c247: u_a3 + K_a2_a3 - 1295 m_a2_proc_3 - 1295 m_a3_proc_3 - u_a2
       - 944 y_a2_proc_3 >= -2590
 c248: u_a3 + K_a2_a3 - 1295 m_a2_proc_0 - 1295 m_a3_proc_0 - u_a2
       - 896 y_a2_proc_0 >= -2590
 c249: K_a2_a3 + K_a3_a2 = 1
 c250: u_a2 + K_a3_a2 - 1295 m_a2_proc_3 - 1295 m_a3_proc_3 - u_a3
       - 827 y_a3_proc_3 >= -2590
 c251: u_a2 + K_a3_a2 - 1295 m_a2_proc_0 - 1295 m_a3_proc_0 - u_a3
       - 1283 y_a3_proc_0 >= -2590
 c252: K_a2_a3 + K_a3_a2 = 1
 c253: u_a4 + K_a2_a4 - 1295 m_a2_proc_2 - 1295 m_a4_proc_2 - u_a2
       - 1112 y_a2_proc_2 >= -2590
 c254: u_a4 + K_a2_a4 - 1295 m_a2_proc_0 - 1295 m_a4_proc_0 - u_a2
       - 896 y_a2_proc_0 >= -2590
 c255: K_a2_a4 + K_a4_a2 = 1
 c256: u_a2 + K_a4_a2 - 1295 m_a2_proc_2 - 1295 m_a4_proc_2 - u_a4
       - 969 y_a4_proc_2 >= -2590
 c257: u_a2 + K_a4_a2 - 1295 m_a2_proc_0 - 1295 m_a4_proc_0 - u_a4
       - 1057 y_a4_proc_0 >= -2590
 c258: K_a2_a4 + K_a4_a2 = 1
 c259: u_a5 + K_a2_a5 - 1295 m_a2_proc_2 - 1295 m_a5_proc_2 - u_a2
       - 1112 y_a2_proc_2 >= -2590
 c260: K_a2_a5 + K_a5_a2 = 1
 c261: u_a2 + K_a5_a2 - 1295 m_a2_proc_2 - 1295 m_a5_proc_2 - u_a5
       - 963 y_a5_proc_2 >= -2590
 c262: K_a2_a5 + K_a5_a2 = 1
 c263: u_a6 + K_a2_a6 - 1295 m_a2_proc_2 - 1295 m_a6_proc_2 - u_a2
       - 1112 y_a2_proc_2 >= -2590
 c264: u_a6 + K_a2_a6 - 1295 m_a2_proc_3 - 1295 m_a6_proc_3 - u_a2
       - 944 y_a2_proc_3 >= -2590
 c265: u_a6 + K_a2_a6 - 1295 m_a2_proc_0 - 1295 m_a6_proc_0 - u_a2
       - 896 y_a2_proc_0 >= -2590
 c266: K_a2_a6 + K_a6_a2 = 1
 c267: u_a2 + K_a6_a2 - 1295 m_a2_proc_2 - 1295 m_a6_proc_2 - u_a6
       - 822 y_a6_proc_2 >= -2590
 c268: u_a2 + K_a6_a2 - 1295 m_a2_proc_3 - 1295 m_a6_proc_3 - u_a6
       - 1227 y_a6_proc_3 >= -2590
 c269: u_a2 + K_a6_a2 - 1295 m_a2_proc_0 - 1295 m_a6_proc_0 - u_a6
       - 1037 y_a6_proc_0 >= -2590
 c270: K_a2_a6 + K_a6_a2 = 1
 c271: u_a7 + K_a2_a7 - 1295 m_a2_proc_2 - 1295 m_a7_proc_2 - u_a2
       - 1112 y_a2_proc_2 >= -2590
 c272: u_a7 + K_a2_a7 - 1295 m_a2_proc_3 - 1295 m_a7_proc_3 - u_a2
       - 944 y_a2_proc_3 >= -2590
 c273: u_a7 + K_a2_a7 - 1295 m_a2_proc_0 - 1295 m_a7_proc_0 - u_a2
       - 896 y_a2_proc_0 >= -2590
 c274: K_a2_a7 + K_a7_a2 = 1
 c275: u_a2 + K_a7_a2 - 1295 m_a2_proc_2 - 1295 m_a7_proc_2 - u_a7
       - 852 y_a7_proc_2 >= -2590
 c276: u_a2 + K_a7_a2 - 1295 m_a2_proc_3 - 1295 m_a7_proc_3 - u_a7
       - 806 y_a7_proc_3 >= -2590
 c277: u_a2 + K_a7_a2 - 1295 m_a2_proc_0 - 1295 m_a7_proc_0 - u_a7
       - 1242 y_a7_proc_0 >= -2590
 c278: K_a2_a7 + K_a7_a2 = 1
 c279: u_a8 + K_a2_a8 - 1295 m_a2_proc_2 - 1295 m_a8_proc_2 - u_a2
       - 1112 y_a2_proc_2 >= -2590
 c280: u_a8 + K_a2_a8 - 1295 m_a2_proc_0 - 1295 m_a8_proc_0 - u_a2
       - 896 y_a2_proc_0 >= -2590
 c281: K_a2_a8 + K_a8_a2 = 1
 c282: u_a2 + K_a8_a2 - 1295 m_a2_proc_2 - 1295 m_a8_proc_2 - u_a8
       - 799 y_a8_proc_2 >= -2590
 c283: u_a2 + K_a8_a2 - 1295 m_a2_proc_0 - 1295 m_a8_proc_0 - u_a8
       - 1150 y_a8_proc_0 >= -2590
 c284: K_a2_a8 + K_a8_a2 = 1
 c285: u_a9 + K_a2_a9 - 1295 m_a2_proc_2 - 1295 m_a9_proc_2 - u_a2
       - 1112 y_a2_proc_2 >= -2590
 c286: u_a9 + K_a2_a9 - 1295 m_a2_proc_3 - 1295 m_a9_proc_3 - u_a2
       - 944 y_a2_proc_3 >= -2590
 c287: u_a9 + K_a2_a9 - 1295 m_a2_proc_0 - 1295 m_a9_proc_0 - u_a2
       - 896 y_a2_proc_0 >= -2590
 c288: K_a2_a9 + K_a9_a2 = 1
 c289: u_a2 + K_a9_a2 - 1295 m_a2_proc_2 - 1295 m_a9_proc_2 - u_a9
       - 1199 y_a9_proc_2 >= -2590
 c290: u_a2 + K_a9_a2 - 1295 m_a2_proc_3 - 1295 m_a9_proc_3 - u_a9
       - 1107 y_a9_proc_3 >= -2590
 c291: u_a2 + K_a9_a2 - 1295 m_a2_proc_0 - 1295 m_a9_proc_0 - u_a9
       - 1295 y_a9_proc_0 >= -2590
 c292: K_a2_a9 + K_a9_a2 = 1
 c293: u_a4 + K_a3_a4 - 1295 m_a3_proc_0 - 1295 m_a4_proc_0 - u_a3
       - 1283 y_a3_proc_0 >= -2590
 c294: u_a4 + K_a3_a4 - 1295 m_a3_proc_1 - 1295 m_a4_proc_1 - u_a3
       - 896 y_a3_proc_1 >= -2590
 c295: K_a3_a4 + K_a4_a3 = 1
 c296: u_a3 + K_a4_a3 - 1295 m_a3_proc_0 - 1295 m_a4_proc_0 - u_a4
       - 1057 y_a4_proc_0 >= -2590
 c297: u_a3 + K_a4_a3 - 1295 m_a3_proc_1 - 1295 m_a4_proc_1 - u_a4
       - 1256 y_a4_proc_1 >= -2590
 c298: K_a3_a4 + K_a4_a3 = 1
 c299: u_a5 + K_a3_a5 - 1295 m_a3_proc_1 - 1295 m_a5_proc_1 - u_a3
       - 896 y_a3_proc_1 >= -2590
 c300: K_a3_a5 + K_a5_a3 = 1
 c301: u_a3 + K_a5_a3 - 1295 m_a3_proc_1 - 1295 m_a5_proc_1 - u_a5
       - 538 y_a5_proc_1 >= -2590
 c302: K_a3_a5 + K_a5_a3 = 1
 c303: u_a6 + K_a3_a6 - 1295 m_a3_proc_3 - 1295 m_a6_proc_3 - u_a3
       - 827 y_a3_proc_3 >= -2590
 c304: u_a6 + K_a3_a6 - 1295 m_a3_proc_0 - 1295 m_a6_proc_0 - u_a3
       - 1283 y_a3_proc_0 >= -2590
 c305: u_a6 + K_a3_a6 - 1295 m_a3_proc_1 - 1295 m_a6_proc_1 - u_a3
       - 896 y_a3_proc_1 >= -2590
 c306: K_a3_a6 + K_a6_a3 = 1
 c307: u_a3 + K_a6_a3 - 1295 m_a3_proc_3 - 1295 m_a6_proc_3 - u_a6
       - 1227 y_a6_proc_3 >= -2590
 c308: u_a3 + K_a6_a3 - 1295 m_a3_proc_0 - 1295 m_a6_proc_0 - u_a6
       - 1037 y_a6_proc_0 >= -2590
 c309: u_a3 + K_a6_a3 - 1295 m_a3_proc_1 - 1295 m_a6_proc_1 - u_a6
       - 946 y_a6_proc_1 >= -2590
 c310: K_a3_a6 + K_a6_a3 = 1
 c311: u_a7 + K_a3_a7 - 1295 m_a3_proc_3 - 1295 m_a7_proc_3 - u_a3
       - 827 y_a3_proc_3 >= -2590
 c312: u_a7 + K_a3_a7 - 1295 m_a3_proc_0 - 1295 m_a7_proc_0 - u_a3
       - 1283 y_a3_proc_0 >= -2590
 c313: u_a7 + K_a3_a7 - 1295 m_a3_proc_1 - 1295 m_a7_proc_1 - u_a3
       - 896 y_a3_proc_1 >= -2590
 c314: K_a3_a7 + K_a7_a3 = 1
 c315: u_a3 + K_a7_a3 - 1295 m_a3_proc_3 - 1295 m_a7_proc_3 - u_a7
       - 806 y_a7_proc_3 >= -2590
 c316: u_a3 + K_a7_a3 - 1295 m_a3_proc_0 - 1295 m_a7_proc_0 - u_a7
       - 1242 y_a7_proc_0 >= -2590
 c317: u_a3 + K_a7_a3 - 1295 m_a3_proc_1 - 1295 m_a7_proc_1 - u_a7
       - 1282 y_a7_proc_1 >= -2590
 c318: K_a3_a7 + K_a7_a3 = 1
 c319: u_a8 + K_a3_a8 - 1295 m_a3_proc_0 - 1295 m_a8_proc_0 - u_a3
       - 1283 y_a3_proc_0 >= -2590
 c320: u_a8 + K_a3_a8 - 1295 m_a3_proc_1 - 1295 m_a8_proc_1 - u_a3
       - 896 y_a3_proc_1 >= -2590
 c321: K_a3_a8 + K_a8_a3 = 1
 c322: u_a3 + K_a8_a3 - 1295 m_a3_proc_0 - 1295 m_a8_proc_0 - u_a8
       - 1150 y_a8_proc_0 >= -2590
 c323: u_a3 + K_a8_a3 - 1295 m_a3_proc_1 - 1295 m_a8_proc_1 - u_a8
       - 923 y_a8_proc_1 >= -2590
 c324: K_a3_a8 + K_a8_a3 = 1
 c325: u_a9 + K_a3_a9 - 1295 m_a3_proc_3 - 1295 m_a9_proc_3 - u_a3
       - 827 y_a3_proc_3 >= -2590
 c326: u_a9 + K_a3_a9 - 1295 m_a3_proc_0 - 1295 m_a9_proc_0 - u_a3
       - 1283 y_a3_proc_0 >= -2590
 c327: u_a9 + K_a3_a9 - 1295 m_a3_proc_1 - 1295 m_a9_proc_1 - u_a3
       - 896 y_a3_proc_1 >= -2590
 c328: K_a3_a9 + K_a9_a3 = 1
 c329: u_a3 + K_a9_a3 - 1295 m_a3_proc_3 - 1295 m_a9_proc_3 - u_a9
       - 1107 y_a9_proc_3 >= -2590
 c330: u_a3 + K_a9_a3 - 1295 m_a3_proc_0 - 1295 m_a9_proc_0 - u_a9
       - 1295 y_a9_proc_0 >= -2590
 c331: u_a3 + K_a9_a3 - 1295 m_a3_proc_1 - 1295 m_a9_proc_1 - u_a9
       - 941 y_a9_proc_1 >= -2590
 c332: K_a3_a9 + K_a9_a3 = 1
 c333: u_a5 + K_a4_a5 - 1295 m_a4_proc_2 - 1295 m_a5_proc_2 - u_a4
       - 969 y_a4_proc_2 >= -2590
 c334: u_a5 + K_a4_a5 - 1295 m_a4_proc_1 - 1295 m_a5_proc_1 - u_a4
       - 1256 y_a4_proc_1 >= -2590
 c335: K_a4_a5 + K_a5_a4 = 1
 c336: u_a4 + K_a5_a4 - 1295 m_a4_proc_2 - 1295 m_a5_proc_2 - u_a5
       - 963 y_a5_proc_2 >= -2590
 c337: u_a4 + K_a5_a4 - 1295 m_a4_proc_1 - 1295 m_a5_proc_1 - u_a5
       - 538 y_a5_proc_1 >= -2590
 c338: K_a4_a5 + K_a5_a4 = 1
 c339: u_a6 + K_a4_a6 - 1295 m_a4_proc_2 - 1295 m_a6_proc_2 - u_a4
       - 969 y_a4_proc_2 >= -2590
 c340: u_a6 + K_a4_a6 - 1295 m_a4_proc_0 - 1295 m_a6_proc_0 - u_a4
       - 1057 y_a4_proc_0 >= -2590
 c341: u_a6 + K_a4_a6 - 1295 m_a4_proc_1 - 1295 m_a6_proc_1 - u_a4
       - 1256 y_a4_proc_1 >= -2590
 c342: K_a4_a6 + K_a6_a4 = 1
 c343: u_a4 + K_a6_a4 - 1295 m_a4_proc_2 - 1295 m_a6_proc_2 - u_a6
       - 822 y_a6_proc_2 >= -2590
 c344: u_a4 + K_a6_a4 - 1295 m_a4_proc_0 - 1295 m_a6_proc_0 - u_a6
       - 1037 y_a6_proc_0 >= -2590
 c345: u_a4 + K_a6_a4 - 1295 m_a4_proc_1 - 1295 m_a6_proc_1 - u_a6
       - 946 y_a6_proc_1 >= -2590
 c346: K_a4_a6 + K_a6_a4 = 1
 c347: u_a7 + K_a4_a7 - 1295 m_a4_proc_2 - 1295 m_a7_proc_2 - u_a4
       - 969 y_a4_proc_2 >= -2590
 c348: u_a7 + K_a4_a7 - 1295 m_a4_proc_0 - 1295 m_a7_proc_0 - u_a4
       - 1057 y_a4_proc_0 >= -2590
 c349: u_a7 + K_a4_a7 - 1295 m_a4_proc_1 - 1295 m_a7_proc_1 - u_a4
       - 1256 y_a4_proc_1 >= -2590
 c350: K_a4_a7 + K_a7_a4 = 1
 c351: u_a4 + K_a7_a4 - 1295 m_a4_proc_2 - 1295 m_a7_proc_2 - u_a7
       - 852 y_a7_proc_2 >= -2590
 c352: u_a4 + K_a7_a4 - 1295 m_a4_proc_0 - 1295 m_a7_proc_0 - u_a7
       - 1242 y_a7_proc_0 >= -2590
 c353: u_a4 + K_a7_a4 - 1295 m_a4_proc_1 - 1295 m_a7_proc_1 - u_a7
       - 1282 y_a7_proc_1 >= -2590
 c354: K_a4_a7 + K_a7_a4 = 1
 c355: u_a8 + K_a4_a8 - 1295 m_a4_proc_2 - 1295 m_a8_proc_2 - u_a4
       - 969 y_a4_proc_2 >= -2590
 c356: u_a8 + K_a4_a8 - 1295 m_a4_proc_0 - 1295 m_a8_proc_0 - u_a4
       - 1057 y_a4_proc_0 >= -2590
 c357: u_a8 + K_a4_a8 - 1295 m_a4_proc_1 - 1295 m_a8_proc_1 - u_a4
       - 1256 y_a4_proc_1 >= -2590
 c358: K_a4_a8 + K_a8_a4 = 1
 c359: u_a4 + K_a8_a4 - 1295 m_a4_proc_2 - 1295 m_a8_proc_2 - u_a8
       - 799 y_a8_proc_2 >= -2590
 c360: u_a4 + K_a8_a4 - 1295 m_a4_proc_0 - 1295 m_a8_proc_0 - u_a8
       - 1150 y_a8_proc_0 >= -2590
 c361: u_a4 + K_a8_a4 - 1295 m_a4_proc_1 - 1295 m_a8_proc_1 - u_a8
       - 923 y_a8_proc_1 >= -2590
 c362: K_a4_a8 + K_a8_a4 = 1
 c363: u_a9 + K_a4_a9 - 1295 m_a4_proc_2 - 1295 m_a9_proc_2 - u_a4
       - 969 y_a4_proc_2 >= -2590
 c364: u_a9 + K_a4_a9 - 1295 m_a4_proc_0 - 1295 m_a9_proc_0 - u_a4
       - 1057 y_a4_proc_0 >= -2590
 c365: u_a9 + K_a4_a9 - 1295 m_a4_proc_1 - 1295 m_a9_proc_1 - u_a4
       - 1256 y_a4_proc_1 >= -2590
 c366: K_a4_a9 + K_a9_a4 = 1
 c367: u_a4 + K_a9_a4 - 1295 m_a4_proc_2 - 1295 m_a9_proc_2 - u_a9
       - 1199 y_a9_proc_2 >= -2590
 c368: u_a4 + K_a9_a4 - 1295 m_a4_proc_0 - 1295 m_a9_proc_0 - u_a9
       - 1295 y_a9_proc_0 >= -2590
 c369: u_a4 + K_a9_a4 - 1295 m_a4_proc_1 - 1295 m_a9_proc_1 - u_a9
       - 941 y_a9_proc_1 >= -2590
 c370: K_a4_a9 + K_a9_a4 = 1
 c371: u_a6 + K_a5_a6 - 1295 m_a5_proc_2 - 1295 m_a6_proc_2 - u_a5
       - 963 y_a5_proc_2 >= -2590
 c372: u_a6 + K_a5_a6 - 1295 m_a5_proc_1 - 1295 m_a6_proc_1 - u_a5
       - 538 y_a5_proc_1 >= -2590
 c373: K_a5_a6 + K_a6_a5 = 1
 c374: u_a5 + K_a6_a5 - 1295 m_a5_proc_2 - 1295 m_a6_proc_2 - u_a6
       - 822 y_a6_proc_2 >= -2590
 c375: u_a5 + K_a6_a5 - 1295 m_a5_proc_1 - 1295 m_a6_proc_1 - u_a6
       - 946 y_a6_proc_1 >= -2590
 c376: K_a5_a6 + K_a6_a5 = 1
 c377: u_a7 + K_a5_a7 - 1295 m_a5_proc_2 - 1295 m_a7_proc_2 - u_a5
       - 963 y_a5_proc_2 >= -2590
 c378: u_a7 + K_a5_a7 - 1295 m_a5_proc_1 - 1295 m_a7_proc_1 - u_a5
       - 538 y_a5_proc_1 >= -2590
 c379: K_a5_a7 + K_a7_a5 = 1
 c380: u_a5 + K_a7_a5 - 1295 m_a5_proc_2 - 1295 m_a7_proc_2 - u_a7
       - 852 y_a7_proc_2 >= -2590
 c381: u_a5 + K_a7_a5 - 1295 m_a5_proc_1 - 1295 m_a7_proc_1 - u_a7
       - 1282 y_a7_proc_1 >= -2590
 c382: K_a5_a7 + K_a7_a5 = 1
 c383: u_a8 + K_a5_a8 - 1295 m_a5_proc_2 - 1295 m_a8_proc_2 - u_a5
       - 963 y_a5_proc_2 >= -2590
 c384: u_a8 + K_a5_a8 - 1295 m_a5_proc_1 - 1295 m_a8_proc_1 - u_a5
       - 538 y_a5_proc_1 >= -2590
 c385: K_a5_a8 + K_a8_a5 = 1
 c386: u_a5 + K_a8_a5 - 1295 m_a5_proc_2 - 1295 m_a8_proc_2 - u_a8
       - 799 y_a8_proc_2 >= -2590
 c387: u_a5 + K_a8_a5 - 1295 m_a5_proc_1 - 1295 m_a8_proc_1 - u_a8
       - 923 y_a8_proc_1 >= -2590
 c388: K_a5_a8 + K_a8_a5 = 1
 c389: u_a9 + K_a5_a9 - 1295 m_a5_proc_2 - 1295 m_a9_proc_2 - u_a5
       - 963 y_a5_proc_2 >= -2590
 c390: u_a9 + K_a5_a9 - 1295 m_a5_proc_1 - 1295 m_a9_proc_1 - u_a5
       - 538 y_a5_proc_1 >= -2590
 c391: K_a5_a9 + K_a9_a5 = 1
 c392: u_a5 + K_a9_a5 - 1295 m_a5_proc_2 - 1295 m_a9_proc_2 - u_a9
       - 1199 y_a9_proc_2 >= -2590
 c393: u_a5 + K_a9_a5 - 1295 m_a5_proc_1 - 1295 m_a9_proc_1 - u_a9
       - 941 y_a9_proc_1 >= -2590
 c394: K_a5_a9 + K_a9_a5 = 1
 c395: u_a7 + K_a6_a7 - 1295 m_a6_proc_2 - 1295 m_a7_proc_2 - u_a6
       - 822 y_a6_proc_2 >= -2590
 c396: u_a7 + K_a6_a7 - 1295 m_a6_proc_3 - 1295 m_a7_proc_3 - u_a6
       - 1227 y_a6_proc_3 >= -2590
 c397: u_a7 + K_a6_a7 - 1295 m_a6_proc_0 - 1295 m_a7_proc_0 - u_a6
       - 1037 y_a6_proc_0 >= -2590
 c398: u_a7 + K_a6_a7 - 1295 m_a6_proc_1 - 1295 m_a7_proc_1 - u_a6
       - 946 y_a6_proc_1 >= -2590
 c399: K_a6_a7 + K_a7_a6 = 1
 c400: u_a6 + K_a7_a6 - 1295 m_a6_proc_2 - 1295 m_a7_proc_2 - u_a7
       - 852 y_a7_proc_2 >= -2590
 c401: u_a6 + K_a7_a6 - 1295 m_a6_proc_3 - 1295 m_a7_proc_3 - u_a7
       - 806 y_a7_proc_3 >= -2590
 c402: u_a6 + K_a7_a6 - 1295 m_a6_proc_0 - 1295 m_a7_proc_0 - u_a7
       - 1242 y_a7_proc_0 >= -2590
 c403: u_a6 + K_a7_a6 - 1295 m_a6_proc_1 - 1295 m_a7_proc_1 - u_a7
       - 1282 y_a7_proc_1 >= -2590
 c404: K_a6_a7 + K_a7_a6 = 1
 c405: u_a8 + K_a6_a8 - 1295 m_a6_proc_2 - 1295 m_a8_proc_2 - u_a6
       - 822 y_a6_proc_2 >= -2590
 c406: u_a8 + K_a6_a8 - 1295 m_a6_proc_0 - 1295 m_a8_proc_0 - u_a6
       - 1037 y_a6_proc_0 >= -2590
 c407: u_a8 + K_a6_a8 - 1295 m_a6_proc_1 - 1295 m_a8_proc_1 - u_a6
       - 946 y_a6_proc_1 >= -2590
 c408: K_a6_a8 + K_a8_a6 = 1
 c409: u_a6 + K_a8_a6 - 1295 m_a6_proc_2 - 1295 m_a8_proc_2 - u_a8
       - 799 y_a8_proc_2 >= -2590
 c410: u_a6 + K_a8_a6 - 1295 m_a6_proc_0 - 1295 m_a8_proc_0 - u_a8
       - 1150 y_a8_proc_0 >= -2590
 c411: u_a6 + K_a8_a6 - 1295 m_a6_proc_1 - 1295 m_a8_proc_1 - u_a8
       - 923 y_a8_proc_1 >= -2590
 c412: K_a6_a8 + K_a8_a6 = 1
 c413: u_a9 + K_a6_a9 - 1295 m_a6_proc_2 - 1295 m_a9_proc_2 - u_a6
       - 822 y_a6_proc_2 >= -2590
 c414: u_a9 + K_a6_a9 - 1295 m_a6_proc_3 - 1295 m_a9_proc_3 - u_a6
       - 1227 y_a6_proc_3 >= -2590
 c415: u_a9 + K_a6_a9 - 1295 m_a6_proc_0 - 1295 m_a9_proc_0 - u_a6
       - 1037 y_a6_proc_0 >= -2590
 c416: u_a9 + K_a6_a9 - 1295 m_a6_proc_1 - 1295 m_a9_proc_1 - u_a6
       - 946 y_a6_proc_1 >= -2590
 c417: K_a6_a9 + K_a9_a6 = 1
 c418: u_a6 + K_a9_a6 - 1295 m_a6_proc_2 - 1295 m_a9_proc_2 - u_a9
       - 1199 y_a9_proc_2 >= -2590
 c419: u_a6 + K_a9_a6 - 1295 m_a6_proc_3 - 1295 m_a9_proc_3 - u_a9
       - 1107 y_a9_proc_3 >= -2590
 c420: u_a6 + K_a9_a6 - 1295 m_a6_proc_0 - 1295 m_a9_proc_0 - u_a9
       - 1295 y_a9_proc_0 >= -2590
 c421: u_a6 + K_a9_a6 - 1295 m_a6_proc_1 - 1295 m_a9_proc_1 - u_a9
       - 941 y_a9_proc_1 >= -2590
 c422: K_a6_a9 + K_a9_a6 = 1
 c423: u_a8 + K_a7_a8 - 1295 m_a7_proc_2 - 1295 m_a8_proc_2 - u_a7
       - 852 y_a7_proc_2 >= -2590
 c424: u_a8 + K_a7_a8 - 1295 m_a7_proc_0 - 1295 m_a8_proc_0 - u_a7
       - 1242 y_a7_proc_0 >= -2590
 c425: u_a8 + K_a7_a8 - 1295 m_a7_proc_1 - 1295 m_a8_proc_1 - u_a7
       - 1282 y_a7_proc_1 >= -2590
 c426: K_a7_a8 + K_a8_a7 = 1
 c427: u_a7 + K_a8_a7 - 1295 m_a7_proc_2 - 1295 m_a8_proc_2 - u_a8
       - 799 y_a8_proc_2 >= -2590
 c428: u_a7 + K_a8_a7 - 1295 m_a7_proc_0 - 1295 m_a8_proc_0 - u_a8
       - 1150 y_a8_proc_0 >= -2590
 c429: u_a7 + K_a8_a7 - 1295 m_a7_proc_1 - 1295 m_a8_proc_1 - u_a8
       - 923 y_a8_proc_1 >= -2590
 c430: K_a7_a8 + K_a8_a7 = 1
 c431: u_a9 + K_a7_a9 - 1295 m_a7_proc_2 - 1295 m_a9_proc_2 - u_a7
       - 852 y_a7_proc_2 >= -2590
 c432: u_a9 + K_a7_a9 - 1295 m_a7_proc_3 - 1295 m_a9_proc_3 - u_a7
       - 806 y_a7_proc_3 >= -2590
 c433: u_a9 + K_a7_a9 - 1295 m_a7_proc_0 - 1295 m_a9_proc_0 - u_a7
       - 1242 y_a7_proc_0 >= -2590
 c434: u_a9 + K_a7_a9 - 1295 m_a7_proc_1 - 1295 m_a9_proc_1 - u_a7
       - 1282 y_a7_proc_1 >= -2590
 c435: K_a7_a9 + K_a9_a7 = 1
 c436: u_a7 + K_a9_a7 - 1295 m_a7_proc_2 - 1295 m_a9_proc_2 - u_a9
       - 1199 y_a9_proc_2 >= -2590
 c437: u_a7 + K_a9_a7 - 1295 m_a7_proc_3 - 1295 m_a9_proc_3 - u_a9
       - 1107 y_a9_proc_3 >= -2590
 c438: u_a7 + K_a9_a7 - 1295 m_a7_proc_0 - 1295 m_a9_proc_0 - u_a9
       - 1295 y_a9_proc_0 >= -2590
 c439: u_a7 + K_a9_a7 - 1295 m_a7_proc_1 - 1295 m_a9_proc_1 - u_a9
       - 941 y_a9_proc_1 >= -2590
 c440: K_a7_a9 + K_a9_a7 = 1
 c441: u_a9 + K_a8_a9 - 1295 m_a8_proc_2 - 1295 m_a9_proc_2 - u_a8
       - 799 y_a8_proc_2 >= -2590
 c442: u_a9 + K_a8_a9 - 1295 m_a8_proc_0 - 1295 m_a9_proc_0 - u_a8
       - 1150 y_a8_proc_0 >= -2590
 c443: u_a9 + K_a8_a9 - 1295 m_a8_proc_1 - 1295 m_a9_proc_1 - u_a8
       - 923 y_a8_proc_1 >= -2590
 c444: K_a8_a9 + K_a9_a8 = 1
 c445: u_a8 + K_a9_a8 - 1295 m_a8_proc_2 - 1295 m_a9_proc_2 - u_a9
       - 1199 y_a9_proc_2 >= -2590
 c446: u_a8 + K_a9_a8 - 1295 m_a8_proc_0 - 1295 m_a9_proc_0 - u_a9
       - 1295 y_a9_proc_0 >= -2590
 c447: u_a8 + K_a9_a8 - 1295 m_a8_proc_1 - 1295 m_a9_proc_1 - u_a9
       - 941 y_a9_proc_1 >= -2590
 c448: K_a8_a9 + K_a9_a8 = 1

Bounds
       K_a0_a1 Free
       K_a0_a2 Free
       K_a0_a3 Free
       K_a0_a4 Free
       K_a0_a5 Free
       K_a0_a6 Free
       K_a0_a7 Free
       K_a0_a8 Free
       K_a0_a9 Free
       K_a1_a0 Free
       K_a1_a2 Free
       K_a1_a3 Free
       K_a1_a4 Free
       K_a1_a5 Free
       K_a1_a6 Free
       K_a1_a7 Free
       K_a1_a8 Free
       K_a1_a9 Free
       K_a2_a0 Free
       K_a2_a1 Free
       K_a2_a3 Free
       K_a2_a4 Free
       K_a2_a5 Free
       K_a2_a6 Free
       K_a2_a7 Free
       K_a2_a8 Free
       K_a2_a9 Free
       K_a3_a0 Free
       K_a3_a1 Free
       K_a3_a2 Free
       K_a3_a4 Free
       K_a3_a5 Free
       K_a3_a6 Free
       K_a3_a7 Free
       K_a3_a8 Free
       K_a3_a9 Free
       K_a4_a0 Free
       K_a4_a1 Free
       K_a4_a2 Free
       K_a4_a3 Free
       K_a4_a5 Free
       K_a4_a6 Free
       K_a4_a7 Free
       K_a4_a8 Free
       K_a4_a9 Free
       K_a5_a0 Free
       K_a5_a1 Free
       K_a5_a2 Free
       K_a5_a3 Free
       K_a5_a4 Free
       K_a5_a6 Free
       K_a5_a7 Free
       K_a5_a8 Free
       K_a5_a9 Free
       K_a6_a0 Free
       K_a6_a1 Free
       K_a6_a2 Free
       K_a6_a3 Free
       K_a6_a4 Free
       K_a6_a5 Free
       K_a6_a7 Free
       K_a6_a8 Free
       K_a6_a9 Free
       K_a7_a0 Free
       K_a7_a1 Free
       K_a7_a2 Free
       K_a7_a3 Free
       K_a7_a4 Free
       K_a7_a5 Free
       K_a7_a6 Free
       K_a7_a8 Free
       K_a7_a9 Free
       K_a8_a0 Free
       K_a8_a1 Free
       K_a8_a2 Free
       K_a8_a3 Free
       K_a8_a4 Free
       K_a8_a5 Free
       K_a8_a6 Free
       K_a8_a7 Free
       K_a8_a9 Free
       K_a9_a0 Free
       K_a9_a1 Free
       K_a9_a2 Free
       K_a9_a3 Free
       K_a9_a4 Free
       K_a9_a5 Free
       K_a9_a6 Free
       K_a9_a7 Free
       K_a9_a8 Free
 0 <= m_a0_proc_0 <= 1
 0 <= m_a0_proc_1 <= 1
 0 <= m_a0_proc_2 <= 1
 0 <= m_a0_proc_3 <= 1
 0 <= m_a1_proc_0 <= 1
 0 <= m_a1_proc_2 <= 1
 0 <= m_a1_proc_3 <= 1
 0 <= m_a2_proc_0 <= 1
 0 <= m_a2_proc_2 <= 1
 0 <= m_a2_proc_3 <= 1
 0 <= m_a3_proc_0 <= 1
 0 <= m_a3_proc_1 <= 1
 0 <= m_a3_proc_3 <= 1
 0 <= m_a4_proc_0 <= 1
 0 <= m_a4_proc_1 <= 1
 0 <= m_a4_proc_2 <= 1
 0 <= m_a5_proc_1 <= 1
 0 <= m_a5_proc_2 <= 1
 0 <= m_a6_proc_0 <= 1
 0 <= m_a6_proc_1 <= 1
 0 <= m_a6_proc_2 <= 1
 0 <= m_a6_proc_3 <= 1
 0 <= m_a7_proc_0 <= 1
 0 <= m_a7_proc_1 <= 1
 0 <= m_a7_proc_2 <= 1
 0 <= m_a7_proc_3 <= 1
 0 <= m_a8_proc_0 <= 1
 0 <= m_a8_proc_1 <= 1
 0 <= m_a8_proc_2 <= 1
 0 <= m_a9_proc_0 <= 1
 0 <= m_a9_proc_1 <= 1
 0 <= m_a9_proc_2 <= 1
 0 <= m_a9_proc_3 <= 1

Binaries
 m_a0_proc_0 m_a0_proc_1 m_a0_proc_2 m_a0_proc_3 m_a1_proc_0 m_a1_proc_2
 m_a1_proc_3 m_a2_proc_0 m_a2_proc_2 m_a2_proc_3 m_a3_proc_0 m_a3_proc_1
 m_a3_proc_3 m_a4_proc_0 m_a4_proc_1 m_a4_proc_2 m_a5_proc_1 m_a5_proc_2
 m_a6_proc_0 m_a6_proc_1 m_a6_proc_2 m_a6_proc_3 m_a7_proc_0 m_a7_proc_1
 m_a7_proc_2 m_a7_proc_3 m_a8_proc_0 m_a8_proc_1 m_a8_proc_2 m_a9_proc_0
 m_a9_proc_1 m_a9_proc_2 m_a9_proc_3

Generals
 K_a0_a1 K_a0_a2 K_a0_a3 K_a0_a4 K_a0_a5 K_a0_a6 K_a0_a7 K_a0_a8 K_a0_a9 K_a1_a0
 K_a1_a2 K_a1_a3 K_a1_a4 K_a1_a5 K_a1_a6 K_a1_a7 K_a1_a8 K_a1_a9 K_a2_a0 K_a2_a1
 K_a2_a3 K_a2_a4 K_a2_a5 K_a2_a6 K_a2_a7 K_a2_a8 K_a2_a9 K_a3_a0 K_a3_a1 K_a3_a2
 K_a3_a4 K_a3_a5 K_a3_a6 K_a3_a7 K_a3_a8 K_a3_a9 K_a4_a0 K_a4_a1 K_a4_a2 K_a4_a3
 K_a4_a5 K_a4_a6 K_a4_a7 K_a4_a8 K_a4_a9 K_a5_a0 K_a5_a1 K_a5_a2 K_a5_a3 K_a5_a4
 K_a5_a6 K_a5_a7 K_a5_a8 K_a5_a9 K_a6_a0 K_a6_a1 K_a6_a2 K_a6_a3 K_a6_a4 K_a6_a5
 K_a6_a7 K_a6_a8 K_a6_a9 K_a7_a0 K_a7_a1 K_a7_a2 K_a7_a3 K_a7_a4 K_a7_a5 K_a7_a6
 K_a7_a8 K_a7_a9 K_a8_a0 K_a8_a1 K_a8_a2 K_a8_a3 K_a8_a4 K_a8_a5 K_a8_a6 K_a8_a7
 K_a8_a9 K_a9_a0 K_a9_a1 K_a9_a2 K_a9_a3 K_a9_a4 K_a9_a5 K_a9_a6 K_a9_a7 K_a9_a8
End
