benchmark/results/graph__10-1000-0.10-04_19/graph__10-1000-0.10-04_19_Quinton_Monolithic.txt
solution for: Quinton Monolithic
objective: 0.000388048
status: OPTIMAL_SOLUTION(2)
u_a0=0.934
u_a1=0.678
u_a2=0.331
u_a3=0.331
u_a4=0.920
u_a5=1.118
u_a6=0.678
u_a8=0.760
u_a9=0.331
tau=0.000
K_a0_a1=1
K_a0_a2=1
K_a0_a3=1
K_a0_a4=1295
K_a0_a5=-1295
K_a0_a6=1
K_a0_a7=1
K_a0_a8=1
K_a0_a9=1
K_a1_a2=1
K_a1_a3=1
K_a1_a5=-2590
K_a1_a6=1
K_a1_a7=1
K_a1_a8=1295
K_a1_a9=1
K_a2_a3=1
K_a2_a5=-2590
K_a2_a6=1
K_a2_a7=1
K_a2_a8=1295
K_a2_a9=1295
K_a3_a4=1
K_a3_a6=1
K_a3_a7=1
K_a3_a9=1
K_a4_a0=-1294
K_a4_a1=1
K_a4_a2=1
K_a4_a5=1
K_a4_a6=1295
K_a4_a7=1
K_a4_a8=1
K_a4_a9=1
K_a5_a0=1296
K_a5_a1=2591
K_a5_a2=2591
K_a5_a3=1
K_a5_a6=1
K_a5_a7=1
K_a5_a8=1
K_a5_a9=1
K_a6_a4=-1294
K_a6_a7=1
K_a6_a8=1
K_a6_a9=1
K_a7_a8=1
K_a7_a9=1
K_a8_a1=-1294
K_a8_a2=-1294
K_a8_a3=1
K_a8_a9=1
K_a9_a2=-1294
m_a0_proc_3=1
m_a1_proc_0=1
m_a2_proc_0=1
m_a3_proc_1=1
m_a4_proc_0=1
m_a5_proc_1=1
m_a6_proc_2=1
m_a7_proc_2=1
m_a8_proc_1=1
m_a9_proc_3=1
y_a0_proc_3=0.000
y_a1_proc_0=0.000
y_a2_proc_0=0.000
y_a3_proc_1=0.000
y_a4_proc_0=0.000
y_a5_proc_1=0.000
y_a6_proc_2=0.000
y_a7_proc_2=0.000
y_a8_proc_1=0.000
y_a9_proc_3=0.000
